; benchmark generated from python API
(set-info :status unknown)
(declare-fun W_S2_V5 () Bool)
(declare-fun W_S2_V4 () Bool)
(declare-fun R_S2_V3 () Bool)
(declare-fun R_S1_V2 () Bool)
(declare-fun R_S1_V3 () Bool)
(declare-fun W_S1_V3 () Bool)
(declare-fun W_S2_V3 () Bool)
(declare-fun R_S2_V1 () Bool)
(declare-fun R_S2_V2 () Bool)
(declare-fun R_S2_V4 () Bool)
(declare-fun W_S2_V1 () Bool)
(declare-fun R_S2_V5 () Bool)
(declare-fun W_S1_V4 () Bool)
(declare-fun W_S1_V5 () Bool)
(declare-fun R_S1_V5 () Bool)
(declare-fun R_S1_V4 () Bool)
(declare-fun W_S2_V2 () Bool)
(declare-fun W_S1_V2 () Bool)
(declare-fun R_E1_V2 () Bool)
(declare-fun R_E1_V3 () Bool)
(declare-fun R_E1_V4 () Bool)
(declare-fun R_E1_V5 () Bool)
(declare-fun R_S1_V1 () Bool)
(declare-fun W_S1_V1 () Bool)
(declare-fun R_E1_V1 () Bool)
(assert
 (let (($x1350 (not W_S2_V5)))
 (let (($x5460 (not W_S2_V4)))
 (let (($x1768 (not R_S2_V3)))
 (let (($x4263 (not R_S1_V2)))
 (let (($x3742 (not R_S1_V3)))
 (let (($x458 (not (and $x3742 $x4263 $x1768 $x5460 $x1350))))
 (let (($x2988 (not (and $x3742 $x4263 $x5460 (not W_S1_V3) $x1350))))
 (let (($x5815 (not W_S2_V3)))
 (let (($x2466 (not R_S2_V1)))
 (let (($x2867 (not R_S2_V2)))
 (let (($x3411 (not R_S2_V4)))
 (let (($x3581 (not (and W_S2_V1 $x3411 $x2867 $x2466 $x5815 $x1350))))
 (let (($x2920 (not (and W_S2_V1 (not R_S2_V5) $x3411 $x2867 $x2466 $x5815))))
 (let (($x3377 (not W_S1_V4)))
 (let (($x66 (not W_S1_V5)))
 (let (($x4320 (not (and W_S2_V1 $x4263 $x2867 $x2466 $x66 $x5460 $x3377 $x1350))))
 (let (($x2427 (not R_S2_V5)))
 (let (($x1626 (not R_S1_V5)))
 (let (($x3591 (not (and W_S2_V1 $x1626 $x3742 $x4263 $x2427 $x2867 $x2466 $x5460))))
 (let (($x594 (not (and W_S2_V1 (not R_S1_V4) $x3742 $x4263 $x3411 $x2867 $x2466 $x1350))))
 (let (($x2155 (not (and W_S2_V1 (not R_S1_V4) $x4263 $x3411 $x2867 $x2466 $x66 $x3377 $x1350))))
 (let (($x5046 (not (and W_S2_V1 $x1626 (not R_S1_V4) $x3742 $x4263 $x2427 $x3411 $x2867 $x2466))))
 (let (($x3493 (not (and $x4263 $x5460 $x5815 $x1350))))
 (let (($x1426 (not (and $x1626 $x4263 $x66 $x5460 $x5815))))
 (let (($x2700 (not (and $x1626 $x3411 $x66 $x5815 (not W_S1_V3) (not W_S2_V2)))))
 (let (($x2199 (not (and $x4263 $x3411 $x66 $x5815 (not W_S1_V3) $x1350))))
 (let (($x2371 (not (and W_S2_V1 $x2427 $x3411 $x1768 $x2867 $x2466))))
 (let (($x5418 (not (and $x1626 (not R_S1_V4) $x3742 $x4263 $x3411 $x1768 $x66))))
 (let (($x346 (not (and (not R_S1_V4) $x3742 $x4263 $x3411 $x1768 $x1350))))
 (let (($x2006 (not (and W_S2_V1 $x1768 $x2867 $x2466 $x5460 $x1350))))
 (let (($x4062 (not (and W_S2_V1 $x3411 $x1768 $x2867 $x2466 $x1350))))
 (let (($x2076 (not (and $x3411 $x1768 $x2466 (not W_S2_V2) $x1350))))
 (let (($x2117 (not (and W_S2_V4 W_S2_V3 $x3411 $x1768 $x66))))
 (let (($x785 (not (and W_S1_V5 W_S1_V4 $x3742 $x1768 $x2466 (not W_S2_V2)))))
 (let (($x3913 (not (and $x1626 (not R_S1_V4) $x3742 $x3411 $x1768 $x2466 (not W_S2_V2)))))
 (let (($x2550 (not (and $x1626 $x3742 $x1768 $x2466 $x5460 (not W_S2_V2)))))
 (let (($x2895 (not W_S2_V2)))
 (let (($x3524 (not W_S1_V3)))
 (let (($x3109 (not R_S1_V4)))
 (let (($x5361 (not (and $x3109 $x3742 $x3411 $x1768 $x2466 $x3524 $x2895 $x3377))))
 (let (($x2622 (not (and $x1626 $x3109 $x3411 $x2466 $x5815 $x2895))))
 (let (($x6012 (not (and $x1626 $x3742 $x2427 $x1768 $x5460 $x2895))))
 (let (($x4623 (not (and $x1626 $x3742 $x1768 $x66 $x5460 $x2895))))
 (let (($x4612 (not (and $x1626 $x3109 $x3742 $x2427 $x1768 $x2466 $x2895))))
 (let (($x2052 (not (and $x1626 $x3109 $x2427 $x2466 $x5815 $x2895))))
 (let (($x4120 (not (and $x2427 $x1768 $x2466 $x5460 $x2895))))
 (let (($x3379 (not (and $x3109 $x3742 $x1768 $x2466 $x2895 $x1350))))
 (let (($x3810 (not (and $x1626 $x3742 $x2427 $x1768 $x2466 $x66 $x3524 $x2895))))
 (let (($x5319 (not (and $x3742 $x1768 $x2466 $x66 $x3524 $x2895 $x1350))))
 (let (($x5704 (not (and $x1626 $x2427 $x2466 $x66 $x5815 $x3524 $x2895))))
 (let (($x240 (not (and $x2466 $x66 $x5815 $x3524 $x2895 $x1350))))
 (let (($x4799 (not (and W_S2_V5 W_S2_V4 W_S2_V3 $x2427 $x3411 $x1768))))
 (let (($x3666 (not (and $x1626 $x3109 $x3742 $x2427 $x3411 $x1768 $x2895))))
 (let (($x2791 (not (and $x1626 $x3109 $x3742 $x3411 $x1768 $x66 $x2895))))
 (let (($x1638 (not (and $x3109 $x3742 $x3411 $x1768 $x2895 $x1350))))
 (let (($x1129 (not (and $x3742 $x1768 $x5460 $x2895 $x1350))))
 (let (($x2636 (not (and $x1626 $x3109 $x3742 $x2427 $x3411 $x3524 $x2895))))
 (let (($x2990 (not (and $x3109 $x3742 $x3411 $x3524 $x2895 $x1350))))
 (let (($x2973 (not (and $x1626 $x3742 $x2427 $x5460 $x3524 $x2895))))
 (let (($x257 (not (and $x3742 $x5460 $x3524 $x2895 $x1350))))
 (let (($x3934 (not (and $x1626 $x3742 $x3411 $x66 $x3524 $x2895))))
 (let (($x1952 (not (and $x1626 $x3742 $x4263 $x3411 $x66 $x3524))))
 (let (($x4892 (not (and $x3742 $x3411 $x66 $x3524 $x2895 $x1350))))
 (let (($x1348 (not (and W_S2_V4 $x3411 $x66 $x3524))))
 (let (($x1424 (not (and $x1626 $x3109 $x2427 $x3411 $x5815 $x2895))))
 (let (($x5336 (not (and $x1626 $x3109 $x4263 $x3411 $x66 $x5815))))
 (let (($x4047 (not (and $x1626 $x4263 $x3411 $x66 $x5815 $x3524))))
 (let (($x5565 (not (and $x3109 $x3411 $x5815 $x2895 $x1350))))
 (let (($x5725 (not (and $x1626 $x3109 $x2427 $x5815 $x2895 $x3377))))
 (let (($x1536 (not (and $x3109 $x3742 $x1768 $x2895 $x3377 $x1350))))
 (let (($x2342 (not (and W_S2_V3 $x1768 $x66 $x3377))))
 (let (($x2941 (not (and $x3109 $x1768 $x66 $x2895 $x3377 $x1350))))
 (let (($x211 (not (and W_S2_V5 W_S2_V3 $x2427 $x1768 $x3377))))
 (let (($x5392 (not (and $x1626 $x3109 $x4263 $x1768 $x66 $x3377))))
 (let (($x2304 (not (and $x2427 $x3411 $x1768 $x2466 $x2895))))
 (let (($x2477 (not (and $x2427 $x3411 $x2466 $x5815 $x2895))))
 (let (($x129 (not (and $x1626 $x2427 $x5460 $x5815 $x2895))))
 (let (($x738 (not (and $x1626 $x3109 $x66 $x5815 $x2895 $x3377))))
 (let (($x1096 (not (and $x2427 $x2466 $x5460 $x5815 $x2895))))
 (let (($x1085 (not (and $x5460 $x5815 $x2895 $x1350))))
 (let (($x1877 (not (and $x1626 $x3109 $x4263 $x66 $x5815 $x3377))))
 (let (($x981 (not W_S2_V1)))
 (let (($x5263 (and $x2895 $x981)))
 (let (($x2158 (not $x5263)))
 (let (($x5439 (forall ((V5_0 Int) )(forall ((V4_0 Int) )(forall ((V3_0 Int) )(forall ((V2_0 Int) )(forall ((S1_V1_!2995 Int) )(forall ((S1_V1_!3012 Int) )(forall ((S1_V1_!3022 Int) )(forall ((S1_V3_!2993 Int) )(forall ((S1_V3_!3010 Int) )(forall ((S1_V3_!3020 Int) )(forall ((S1_V2_!2994 Int) )(forall ((S1_V2_!3011 Int) )(forall ((S1_V2_!3021 Int) )(forall ((S2_V1_!3001 Int) )(forall ((S2_V1_!3006 Int) )(forall ((S2_V1_!3017 Int) )(forall ((S2_V1_!3027 Int) )(forall ((S1_V5_!2991 Int) )(forall ((S1_V5_!3008 Int) )(forall ((S1_V5_!3018 Int) )(forall ((S2_V2_!3000 Int) )(forall ((S2_V2_!3005 Int) )(forall ((S2_V2_!3016 Int) )(forall ((S2_V2_!3026 Int) )(forall ((S1_V4_!2992 Int) )(forall ((S1_V4_!3009 Int) )(forall ((S1_V4_!3019 Int) )(forall ((E1_!2990 Int) )(forall ((E1_!2996 Int) )(forall ((E1_!3007 Int) )(forall ((S2_V3_!2999 Int) )(forall ((S2_V3_!3004 Int) )(forall ((S2_V3_!3015 Int) )(forall ((S2_V3_!3025 Int) )(forall ((S2_V4_!2998 Int) )(forall ((S2_V4_!3003 Int) )(forall ((S2_V4_!3014 Int) )(forall ((S2_V4_!3024 Int) )(forall ((S2_V5_!2997 Int) )(forall ((S2_V5_!3002 Int) )(forall ((S2_V5_!3013 Int) )(forall ((S2_V5_!3023 Int) )(let ((?x5341 (ite W_S2_V1 S2_V1_!3017 E1_!3007)))
 (let ((?x3787 (ite W_S2_V1 S2_V1_!3001 E1_!2996)))
 (let (($x1627 (= ?x3787 ?x5341)))
 (let ((?x2720 (ite W_S1_V2 S1_V2_!3011 V2_0)))
 (let ((?x5527 (ite W_S2_V2 S2_V2_!3016 ?x2720)))
 (let (($x197 (= V2_0 ?x5527)))
 (let (($x514 (= S1_V2_!2994 S1_V2_!3021)))
 (let (($x5219 (ite W_S1_V2 $x514 $x197)))
 (let ((?x2768 (ite W_S1_V3 S1_V3_!3010 V3_0)))
 (let ((?x1478 (ite W_S2_V3 S2_V3_!3015 ?x2768)))
 (let (($x85 (= V3_0 ?x1478)))
 (let (($x3683 (ite W_S1_V3 (= S1_V3_!2993 S1_V3_!3020) $x85)))
 (let (($x389 (= S2_V3_!3004 S2_V3_!3025)))
 (let ((?x1499 (ite W_S1_V4 S1_V4_!3009 V4_0)))
 (let ((?x1732 (ite W_S2_V4 S2_V4_!3014 ?x1499)))
 (let (($x5429 (= V4_0 ?x1732)))
 (let (($x1788 (ite W_S1_V4 (= S1_V4_!2992 S1_V4_!3019) $x5429)))
 (let (($x2986 (= S2_V4_!3003 S2_V4_!3024)))
 (let ((?x558 (ite W_S1_V5 S1_V5_!3008 V5_0)))
 (let ((?x1931 (ite W_S2_V5 S2_V5_!3013 ?x558)))
 (let (($x431 (= V5_0 ?x1931)))
 (let (($x5443 (= S1_V5_!2991 S1_V5_!3018)))
 (let (($x1391 (ite W_S1_V5 $x5443 $x431)))
 (let (($x3092 (= S2_V5_!3002 S2_V5_!3023)))
 (let (($x443 (and (ite W_S2_V5 $x3092 $x1391) (ite W_S2_V4 $x2986 $x1788) (ite W_S2_V3 $x389 $x3683) (ite W_S2_V2 (= S2_V2_!3005 S2_V2_!3026) $x5219) (ite W_S2_V1 (= S2_V1_!3006 S2_V1_!3027) $x1627))))
 (let (($x4855 (>= (ite W_S2_V1 S2_V1_!3027 (+ 1 ?x5341)) (+ (- 1) (ite W_S2_V2 S2_V2_!3026 (ite W_S1_V2 S1_V2_!3021 ?x5527))))))
 (let (($x5405 (>= (ite W_S2_V1 S2_V1_!3006 (+ 1 ?x3787)) (+ (- 1) (ite W_S2_V2 S2_V2_!3005 (ite W_S1_V2 S1_V2_!2994 V2_0))))))
 (let (($x2825 (not (<= (ite W_S2_V2 S2_V2_!3000 (ite W_S1_V2 S1_V2_!2994 V2_0)) (+ 1 ?x3787)))))
 (let (($x2370 (and (not (<= V2_0 E1_!2990)) (>= E1_!2990 (+ (- 1) (ite W_S1_V2 S1_V2_!2994 V2_0))) (not (<= (ite W_S1_V2 S1_V2_!2994 V2_0) E1_!2996)) $x2825 $x5405 (not (<= V2_0 E1_!3007)) (not (<= ?x5527 (+ 1 ?x5341))) $x4855)))
 (let (($x4037 (= S2_V5_!3023 S2_V5_!3013)))
 (let (($x2126 (and (or (not R_S2_V5) (ite W_S1_V5 (= S1_V5_!3018 S1_V5_!3008) (= ?x1931 V5_0))) (or (not R_S2_V4) (ite W_S1_V4 (= S1_V4_!3019 S1_V4_!3009) (= ?x1732 V4_0))) (or (not R_S2_V3) (ite W_S1_V3 (= S1_V3_!3020 S1_V3_!3010) (= ?x1478 V3_0))) (or (not R_S2_V2) (ite W_S1_V2 (= S1_V2_!3021 S1_V2_!3011) (= ?x5527 V2_0))) (or (not R_S2_V1) (= ?x5341 (+ (- 1) E1_!3007))))))
 (let (($x4156 (not $x2126)))
 (let ((?x3466 (ite W_S1_V2 S1_V2_!3021 ?x5527)))
 (let ((?x4087 (ite W_S1_V2 S1_V2_!2994 V2_0)))
 (let ((?x5111 (ite W_S2_V2 S2_V2_!3000 ?x4087)))
 (let (($x2867 (not R_S2_V2)))
 (let ((?x425 (ite W_S1_V3 S1_V3_!3020 ?x1478)))
 (let ((?x5838 (ite W_S1_V3 S1_V3_!2993 V3_0)))
 (let ((?x5184 (ite W_S2_V3 S2_V3_!2999 ?x5838)))
 (let (($x1768 (not R_S2_V3)))
 (let ((?x1659 (ite W_S1_V4 S1_V4_!3019 ?x1732)))
 (let ((?x5785 (ite W_S1_V4 S1_V4_!2992 V4_0)))
 (let ((?x6037 (ite W_S2_V4 S2_V4_!2998 ?x5785)))
 (let (($x3411 (not R_S2_V4)))
 (let ((?x2317 (ite W_S1_V5 S1_V5_!3018 ?x1931)))
 (let ((?x1328 (ite W_S1_V5 S1_V5_!2991 V5_0)))
 (let ((?x2701 (ite W_S2_V5 S2_V5_!2997 ?x1328)))
 (let (($x2427 (not R_S2_V5)))
 (let (($x3614 (and (or $x2427 (= ?x2701 ?x2317)) (or $x3411 (= ?x6037 ?x1659)) (or $x1768 (= ?x5184 ?x425)) (or $x2867 (= ?x5111 ?x3466)) (or (not R_S2_V1) $x1627))))
 (let (($x3743 (= S2_V5_!3002 S2_V5_!3013)))
 (let (($x5128 (and (or $x2427 (= ?x2701 ?x558)) (or $x3411 (= ?x6037 ?x1499)) (or $x1768 (= ?x5184 ?x2768)) (or $x2867 (= ?x5111 ?x2720)) (or (not R_S2_V1) (= ?x3787 (+ (- 1) E1_!3007))))))
 (let (($x4277 (= S2_V5_!2997 S2_V5_!3023)))
 (let (($x1586 (and (or $x2427 $x1391) (or $x3411 $x1788) (or $x1768 $x3683) (or $x2867 $x5219) (or (not R_S2_V1) (= E1_!2996 (+ 1 ?x5341))))))
 (let (($x1303 (not $x1586)))
 (let (($x170 (= S2_V5_!2997 S2_V5_!3013)))
 (let (($x2009 (= E1_!2996 E1_!3007)))
 (let (($x2466 (not R_S2_V1)))
 (let (($x4737 (or $x2466 $x2009)))
 (let (($x5057 (and (or $x2427 (not W_S1_V5) (= S1_V5_!2991 S1_V5_!3008)) (or $x3411 (not W_S1_V4) (= S1_V4_!2992 S1_V4_!3009)) (or $x1768 (not W_S1_V3) (= S1_V3_!2993 S1_V3_!3010)) (or $x2867 (not W_S1_V2) (= S1_V2_!2994 S1_V2_!3011)) $x4737)))
 (let (($x4486 (not $x5057)))
 (let (($x2510 (= S2_V5_!2997 S2_V5_!3002)))
 (let (($x530 (and (or $x2427 (= ?x1328 ?x2701)) (or $x3411 (= ?x5785 ?x6037)) (or $x1768 (= ?x5838 ?x5184)) (or $x2867 (= ?x4087 ?x5111)) (or $x2466 (= E1_!2996 (+ 1 ?x3787))))))
 (let (($x1572 (not $x530)))
 (let (($x2590 (= S2_V4_!3024 S2_V4_!3003)))
 (let (($x3633 (and (or $x2427 (= ?x2317 ?x2701)) (or $x3411 (= ?x1659 ?x6037)) (or $x1768 (= ?x425 ?x5184)) (or $x2867 (= ?x3466 ?x5111)) (or $x2466 (= ?x5341 ?x3787)))))
 (let (($x6018 (not $x3633)))
 (let (($x61 (= S2_V4_!3014 S2_V4_!3024)))
 (let (($x4863 (and (or $x2427 (ite W_S1_V5 (= S1_V5_!3008 S1_V5_!3018) $x431)) (or $x3411 (ite W_S1_V4 (= S1_V4_!3009 S1_V4_!3019) $x5429)) (or $x1768 (ite W_S1_V3 (= S1_V3_!3010 S1_V3_!3020) $x85)) (or $x2867 (ite W_S1_V2 (= S1_V2_!3011 S1_V2_!3021) $x197)) (or $x2466 (= E1_!3007 (+ 1 ?x5341))))))
 (let (($x92 (not $x4863)))
 (let (($x12 (= S2_V4_!3014 S2_V4_!3003)))
 (let (($x5902 (and (or $x2427 (= ?x558 ?x2701)) (or $x3411 (= ?x1499 ?x6037)) (or $x1768 (= ?x2768 ?x5184)) (or $x2867 (= ?x2720 ?x5111)) (or $x2466 (= E1_!3007 (+ 1 ?x3787))))))
 (let (($x5437 (not $x5902)))
 (let (($x4219 (= S2_V3_!3025 S2_V3_!2999)))
 (let (($x2998 (and (or $x2427 (ite W_S1_V5 (= S1_V5_!3018 S1_V5_!2991) (= ?x1931 V5_0))) (or $x3411 (ite W_S1_V4 (= S1_V4_!3019 S1_V4_!2992) (= ?x1732 V4_0))) (or $x1768 (ite W_S1_V3 (= S1_V3_!3020 S1_V3_!2993) (= ?x1478 V3_0))) (or $x2867 (ite W_S1_V2 (= S1_V2_!3021 S1_V2_!2994) (= ?x5527 V2_0))) (or $x2466 (= ?x5341 (+ (- 1) E1_!2996))))))
 (let (($x4215 (not $x2998)))
 (let (($x3118 (= S2_V3_!3015 S2_V3_!2999)))
 (let (($x3052 (= E1_!3007 E1_!2996)))
 (let (($x2570 (or $x2466 $x3052)))
 (let (($x1976 (and (or $x2427 (not W_S1_V5) (= S1_V5_!3008 S1_V5_!2991)) (or $x3411 (not W_S1_V4) (= S1_V4_!3009 S1_V4_!2992)) (or $x1768 (not W_S1_V3) (= S1_V3_!3010 S1_V3_!2993)) (or $x2867 (not W_S1_V2) (= S1_V2_!3011 S1_V2_!2994)) $x2570)))
 (let (($x4722 (not $x1976)))
 (let (($x2434 (= S2_V3_!3004 S2_V3_!2999)))
 (let (($x953 (and (or $x2427 (= ?x2701 ?x1328)) (or $x3411 (= ?x6037 ?x5785)) (or $x1768 (= ?x5184 ?x5838)) (or $x2867 (= ?x5111 ?x4087)) (or $x2466 (= ?x3787 (+ (- 1) E1_!2996))))))
 (let (($x2258 (and (or (not R_E1_V5) (= ?x1328 V5_0)) (or (not R_E1_V4) (= ?x5785 V4_0)) (or (not R_E1_V3) (= ?x5838 V3_0)) (or (not R_E1_V2) (= ?x4087 V2_0)))))
 (let (($x5578 (not $x2258)))
 (let (($x3284 (= E1_!2990 E1_!3007)))
 (let (($x2591 (= S1_V4_!3019 S1_V4_!3009)))
 (let (($x430 (= ?x5527 V2_0)))
 (let (($x4263 (not R_S1_V2)))
 (let (($x2380 (or $x4263 $x430)))
 (let (($x5001 (= ?x1478 V3_0)))
 (let (($x3742 (not R_S1_V3)))
 (let (($x1318 (or $x3742 $x5001)))
 (let (($x2805 (= ?x1732 V4_0)))
 (let (($x3109 (not R_S1_V4)))
 (let (($x3350 (or $x3109 $x2805)))
 (let (($x1381 (= ?x1931 V5_0)))
 (let (($x1626 (not R_S1_V5)))
 (let (($x368 (or $x1626 $x1381)))
 (let (($x3229 (and $x368 $x3350 $x1318 $x2380 (or (not R_S1_V1) (= ?x5341 (+ (- 1) E1_!3007))))))
 (let (($x828 (not $x3229)))
 (let (($x919 (= S1_V4_!3019 S1_V4_!2992)))
 (let (($x2438 (and $x368 $x3350 $x1318 $x2380 (or (not R_S1_V1) (= ?x5341 (+ (- 1) E1_!2990))))))
 (let (($x3730 (not $x2438)))
 (let (($x5043 (or $x4263 $x197)))
 (let (($x2406 (or $x3742 $x85)))
 (let (($x3343 (or $x3109 $x5429)))
 (let (($x1787 (or $x1626 $x431)))
 (let (($x1709 (and $x1787 $x3343 $x2406 $x5043 (or (not R_S1_V1) (= E1_!2990 (+ 1 ?x5341))))))
 (let (($x870 (not $x1709)))
 (let (($x5723 (= S1_V2_!3011 S1_V2_!3021)))
 (let (($x1890 (and $x1787 $x3343 $x2406 $x5043 (or (not R_S1_V1) (= E1_!3007 (+ 1 ?x5341))))))
 (let (($x2044 (not $x1890)))
 (let (($x717 (and (or $x870 (= S1_V1_!2995 S1_V1_!3022)) (or (not (or (not R_S1_V1) (= E1_!3007 E1_!2990))) (= S1_V1_!3012 S1_V1_!2995)) (or $x2044 (= S1_V1_!3012 S1_V1_!3022)) (or (not (or (not R_S1_V1) (= E1_!3007 E1_!2990))) (= S1_V3_!3010 S1_V3_!2993)) (or $x2044 (= S1_V3_!3010 S1_V3_!3020)) (or $x3730 (= S1_V3_!3020 S1_V3_!2993)) (or $x870 $x514) (or (not (or (not R_S1_V1) (= E1_!3007 E1_!2990))) (= S1_V2_!3011 S1_V2_!2994)) (or $x2044 $x5723) (or $x1572 (= S2_V1_!3001 S2_V1_!3006)) (or $x4722 (= S2_V1_!3017 S2_V1_!3001)) (or $x5437 (= S2_V1_!3017 S2_V1_!3006)) (or $x92 (= S2_V1_!3017 S2_V1_!3027)) (or $x4215 (= S2_V1_!3027 S2_V1_!3001)) (or $x6018 (= S2_V1_!3027 S2_V1_!3006)) (or (not (or (not R_S1_V1) $x3284)) (= S1_V5_!2991 S1_V5_!3008)) (or $x870 $x5443) (or $x828 (= S1_V5_!3018 S1_V5_!3008)) (or $x1572 (= S2_V2_!3000 S2_V2_!3005)) (or $x4722 (= S2_V2_!3016 S2_V2_!3000)) (or $x5437 (= S2_V2_!3016 S2_V2_!3005)) (or $x4215 (= S2_V2_!3026 S2_V2_!3000)) (or $x6018 (= S2_V2_!3026 S2_V2_!3005)) (or $x4156 (= S2_V2_!3026 S2_V2_!3016)) (or (not (or (not R_S1_V1) $x3284)) (= S1_V4_!2992 S1_V4_!3009)) (or $x3730 $x919) (or $x828 $x2591) $x3284 (or $x5578 (= E1_!2996 E1_!2990)) (or $x5578 $x2009) (or (not $x953) $x2434) (or $x4722 $x3118) (or $x5437 (= S2_V3_!3015 S2_V3_!3004)) (or $x92 (= S2_V3_!3015 S2_V3_!3025)) (or $x4215 $x4219) (or $x6018 (= S2_V3_!3025 S2_V3_!3004)) (or $x1572 (= S2_V4_!2998 S2_V4_!3003)) (or $x4486 (= S2_V4_!2998 S2_V4_!3014)) (or $x1303 (= S2_V4_!2998 S2_V4_!3024)) (or $x5437 $x12) (or $x92 $x61) (or $x6018 $x2590) (or $x1572 $x2510) (or $x4486 $x170) (or $x1303 $x4277) (or (not $x5128) $x3743) (or (not $x3614) $x3092) (or $x4156 $x4037))))
 (or (not $x717) (not $x2370) $x443)))))))))))))))))))))))))))))))))))))))))))))))))))))))))))))))))))))))))))))))))))))))))))))))))))))))))))))))))))
 )
 )
 )
 )
 )
 )
 )
 )
 )
 )
 )
 )
 )
 )
 )
 )
 )
 )
 )
 )
 )
 )
 )
 )
 )
 )
 )
 )
 )
 )
 )
 )
 )
 )
 )
 )
 )
 )
 )
 )
 )
 ))
 (let (($x2641 (or W_S1_V5 W_S1_V4 W_S1_V3 W_S1_V2)))
 (let (($x2295 (or W_S2_V5 W_S2_V4 W_S2_V3 W_S2_V2 W_S2_V1)))
 (let (($x3651 (not R_S1_V1)))
 (let (($x2016 (and $x1626 $x3651 $x3524 $x3377)))
 (let (($x3300 (and $x1626 $x3109 $x3651 $x3524)))
 (let (($x1268 (and $x1626 $x3109 $x3742 $x3651)))
 (let (($x1014 (and $x1626 $x3742 $x3651 $x3377)))
 (let (($x536 (and $x3109 $x3651 $x66 $x3524)))
 (let (($x5487 (and $x3109 $x3742 $x3651 $x66)))
 (let (($x611 (and $x3742 $x3651 $x66 $x3377)))
 (let (($x1065 (or $x5263 $x611 $x5487 $x536 $x1014 $x1268 $x3300 $x2016)))
 (let (($x1438 (not W_S1_V1)))
 (let (($x2563 (not W_S1_V2)))
 (let (($x5378 (and $x66 $x2563 $x3524 $x3377)))
 (let (($x4838 (not R_E1_V3)))
 (let (($x1841 (and $x4838 $x66 $x2563 $x3377)))
 (let (($x2088 (not R_E1_V4)))
 (let (($x3944 (and $x2088 $x66 $x2563 $x3524)))
 (let (($x794 (and $x2088 $x4838 $x66 $x2563)))
 (let (($x1552 (not R_E1_V5)))
 (let (($x5912 (and $x1552 $x4838 $x2563 $x3377)))
 (let (($x895 (and $x1552 $x2088 $x2563 $x3524)))
 (let (($x3795 (and $x1552 $x2088 $x4838 $x2563)))
 (let (($x6059 (and $x1552 $x2563 $x3524 $x3377)))
 (let (($x2555 (or $x6059 $x3795 $x895 $x5912 $x794 $x3944 $x1841 $x5378)))
 (let (($x2185 (not R_E1_V1)))
 (and (and $x2185 $x2555 $x1438 $x1065 $x2295 $x2641 $x5439) $x2158 $x1877 $x1085 $x1096 $x738 $x129 $x2477 $x2304 $x5392 $x211 $x2941 $x2342 $x1536 $x5725 $x5565 $x4047 $x5336 $x1424 $x1348 $x4892 $x1952 $x3934 $x257 $x2973 $x2990 $x2636 $x1129 $x1638 $x2791 $x3666 $x4799 $x240 $x5704 $x5319 $x3810 $x3379 $x4120 $x2052 $x4612 $x4623 $x6012 $x2622 $x5361 $x2550 $x3913 $x785 $x2117 $x2076 $x4062 $x2006 $x346 $x5418 $x2371 $x2199 $x2700 $x1426 $x3493 $x5046 $x2155 $x594 $x3591 $x4320 $x2920 $x3581 $x2988 $x458)))))))))))))))))))))))))))))))))))))))))))))))))))))))))))))))))))))))))))))))))))))))))))))))))))))))))))))))))
(check-sat)
